NAME:  br11
TYPE: ATSP
COMMENT: 17 city problem (Repetto)
DIMENSION:  11
EDGE_WEIGHT_TYPE: EXPLICIT
EDGE_WEIGHT_FORMAT: FULL_MATRIX 
EDGE_WEIGHT_SECTION
9999   57   51   99   97    5   92   87   84   78   88
  79 9999   77   82   70   76   60   82   71    7   65
  97   69 9999   81   65   99   67   93    6   57   64
  77   92   58 9999   67   80   56    8   58   92   92
  60   99   64   69 9999   79   75   87   53   58    4
  95   79    4   70   51 9999   73   97   94   81   73
   3   89   78   72   59   98 9999   76   91   67   81
  72   86   94   97    5   73   68 9999   73   53   76
  50    3   68   52   98   64   65   93 9999   52   78
  78   76   95    2   73   89   98   97   92 9999   73
  86   63   83   81   77   81    6   69   88   73 9999